(set-info :source |printed by MathSAT|)
(declare-fun call_mesi.ite26 () Int)
(declare-fun call_mesi.flby2.next () Int)
(declare-fun call_mesi.ite12.next () Int)
(declare-fun call_Abs2.Abs.next () Int)
(declare-fun call_mesi.ite24.next () Int)
(declare-fun call_Abs.ite () Int)
(declare-fun param_etat_me2 () Bool)
(declare-fun call_mesi.flby4 () Int)
(declare-fun call_mesi.ite7 () Int)
(declare-fun call_mesi.ite16.next () Int)
(declare-fun call_mesi.flby3.next () Int)
(declare-fun call_mesi.ite31 () Int)
(declare-fun call_mesi.ite2 () Int)
(declare-fun call_mesi.ite14.next () Int)
(declare-fun call_mesi.flby2 () Int)
(declare-fun call_mesi.garde_me2.next () Bool)
(declare-fun call_mesi.ite4.next () Int)
(declare-fun call_mesi.ite11 () Int)
(declare-fun call_mesi.ite7.next () Int)
(declare-fun param_etat_me1 () Bool)
(declare-fun call_mesi.ite10.next () Int)
(declare-fun shared_me () Int)
(declare-fun call_mesi.shared_me () Int)
(declare-fun invalid_me.next () Int)
(declare-fun call_mesi.ite.next () Int)
(declare-fun call_mesi.ite10 () Int)
(declare-fun call_mesi.ite16 () Int)
(declare-fun exclusive_me () Int)
(declare-fun call_mesi.ite30 () Int)
(declare-fun call_excludes4.excludes.next () Bool)
(declare-fun call_mesi.ite21 () Int)
(declare-fun call_mesi.ite15 () Int)
(declare-fun call_mesi.ite9.next () Int)
(declare-fun param_etat_me4.next () Bool)
(declare-fun call_mesi.ite13.next () Int)
(declare-fun call_mesi.ite14 () Int)
(declare-fun call_mesi.ite30.next () Int)
(declare-fun call_mesi.ite32.next () Int)
(declare-fun env.next () Bool)
(declare-fun call_mesi.ite26.next () Int)
(declare-fun call_mesi.ite17 () Int)
(declare-fun call_mesi.garde_me4.next () Bool)
(declare-fun call_mesi.ite8.next () Int)
(declare-fun call_mesi.ite22 () Int)
(declare-fun call_Abs3.Abs.next () Int)
(declare-fun call_mesi.ite18 () Int)
(declare-fun call_mesi.exclusive_me () Int)
(declare-fun call_Sofar.Sofar () Bool)
(declare-fun invalid_me () Int)
(declare-fun call_Abs2.ite () Int)
(declare-fun call_mesi.ite6 () Int)
(declare-fun call_mesi.ite27 () Int)
(declare-fun param_etat_me1.next () Bool)
(declare-fun call_Abs4.ite.next () Int)
(declare-fun modified_me.next () Int)
(declare-fun call_Abs3.Abs () Int)
(declare-fun exclusive_me.next () Int)
(declare-fun call_mesi.ite25 () Int)
(declare-fun call_mesi.ite9 () Int)
(declare-fun call_Abs.Abs () Int)
(declare-fun call_mesi.ite3 () Int)
(declare-fun shared_me.next () Int)
(declare-fun call_Sofar.flby () Bool)
(declare-fun call_mesi.ite21.next () Int)
(declare-fun call_mesi.flby4.next () Int)
(declare-fun param_etat_me4 () Bool)
(declare-fun call_Abs4.ite () Int)
(declare-fun call_mesi.garde_me3.next () Bool)
(declare-fun call_mesi.ite25.next () Int)
(declare-fun call_mesi.ite () Int)
(declare-fun param_etat_me2.next () Bool)
(declare-fun call_mesi.ite29.next () Int)
(declare-fun call_mesi.ite24 () Int)
(declare-fun call_mesi.ite6.next () Int)
(declare-fun call_mesi.ite27.next () Int)
(declare-fun _OK_ () Bool)
(declare-fun call_Sofar.Sofar.next () Bool)
(declare-fun call_mesi.flby3 () Int)
(declare-fun call_mesi.invalid_me.next () Int)
(declare-fun _OK_.next () Bool)
(declare-fun call_mesi.ite3.next () Int)
(declare-fun call_mesi.ite11.next () Int)
(declare-fun param_etat_me3 () Bool)
(declare-fun call_mesi.ite5.next () Int)
(declare-fun call_Abs.ite.next () Int)
(declare-fun call_mesi.ite18.next () Int)
(declare-fun call_mesi.ite28.next () Int)
(declare-fun call_mesi.flby () Int)
(declare-fun call_mesi.ite13 () Int)
(declare-fun call_excludes4.excludes () Bool)
(declare-fun call_mesi.ite2.next () Int)
(declare-fun call_Abs2.ite.next () Int)
(declare-fun call_mesi.invalid_me () Int)
(declare-fun call_mesi.ite32 () Int)
(declare-fun call_Abs4.Abs.next () Int)
(declare-fun call_mesi.ite31.next () Int)
(declare-fun call_mesi.ite8 () Int)
(declare-fun call_Abs3.ite.next () Int)
(declare-fun call_mesi.ite15.next () Int)
(declare-fun call_Abs.Abs.next () Int)
(declare-fun env () Bool)
(declare-fun call_mesi.flby.next () Int)
(declare-fun call_Abs3.ite () Int)
(declare-fun call_mesi.ite23.next () Int)
(declare-fun call_Abs2.Abs () Int)
(declare-fun call_mesi.ite5 () Int)
(declare-fun call_mesi.modified_me.next () Int)
(declare-fun call_Abs4.Abs () Int)
(declare-fun call_mesi.ite17.next () Int)
(declare-fun call_mesi.ite19.next () Int)
(declare-fun call_mesi.ite23 () Int)
(declare-fun call_Sofar.flby.next () Bool)
(declare-fun call_mesi.exclusive_me.next () Int)
(declare-fun call_mesi.ite29 () Int)
(declare-fun call_mesi.ite20.next () Int)
(declare-fun modified_me () Int)
(declare-fun call_mesi.shared_me.next () Int)
(declare-fun call_mesi.ite22.next () Int)
(declare-fun call_mesi.garde_me1.next () Bool)
(declare-fun param_etat_me3.next () Bool)
(declare-fun call_mesi.ite19 () Int)
(declare-fun call_mesi.modified_me () Int)
(define-fun .def_1381 () Bool (= call_Abs4.Abs.next call_Abs4.ite.next))
(define-fun .def_1379 () Bool (= call_Abs3.Abs.next call_Abs3.ite.next))
(define-fun .def_1377 () Bool (= call_Abs2.Abs.next call_Abs2.ite.next))
(define-fun .def_1375 () Bool (= call_Abs.Abs.next call_Abs.ite.next))
(define-fun .def_1373 () Bool (= call_Sofar.flby.next call_Sofar.Sofar.next))
(define-fun .def_1368 () Bool (and param_etat_me4.next param_etat_me3.next))
(define-fun .def_1366 () Bool (and param_etat_me4.next param_etat_me2.next))
(define-fun .def_1364 () Bool (and param_etat_me3.next param_etat_me2.next))
(define-fun .def_1361 () Bool (and param_etat_me2.next param_etat_me1.next))
(define-fun .def_1360 () Bool (and param_etat_me3.next param_etat_me1.next))
(define-fun .def_1362 () Bool (or .def_1360 .def_1361))
(define-fun .def_1359 () Bool (and param_etat_me4.next param_etat_me1.next))
(define-fun .def_1363 () Bool (or .def_1359 .def_1362))
(define-fun .def_1365 () Bool (or .def_1363 .def_1364))
(define-fun .def_1367 () Bool (or .def_1365 .def_1366))
(define-fun .def_1369 () Bool (or .def_1367 .def_1368))
(define-fun .def_1370 () Bool (not .def_1369))
(define-fun .def_1371 () Bool (= call_excludes4.excludes.next .def_1370))
(define-fun .def_1357 () Bool (= call_mesi.flby4.next call_mesi.invalid_me.next))
(define-fun .def_1355 () Bool (= call_mesi.flby3.next call_mesi.shared_me.next))
(define-fun .def_1353 () Bool (= call_mesi.flby2.next call_mesi.exclusive_me.next))
(define-fun .def_1351 () Bool (= call_mesi.flby.next call_mesi.modified_me.next))
(define-fun .def_1347 () Bool (= call_mesi.ite32.next call_mesi.ite31.next))
(define-fun .def_1348 () Bool (or param_etat_me1.next .def_1347))
(define-fun .def_1344 () Bool (= call_mesi.ite25.next call_mesi.ite32.next))
(define-fun .def_1329 () Bool (not param_etat_me1.next))
(define-fun .def_1345 () Bool (or .def_1329 .def_1344))
(define-fun .def_1341 () Bool (= call_mesi.ite24.next call_mesi.ite23.next))
(define-fun .def_1342 () Bool (or param_etat_me1.next .def_1341))
(define-fun .def_1338 () Bool (= call_mesi.ite17.next call_mesi.ite24.next))
(define-fun .def_1339 () Bool (or .def_1329 .def_1338))
(define-fun .def_1335 () Bool (= call_mesi.ite16.next call_mesi.ite15.next))
(define-fun .def_1336 () Bool (or param_etat_me1.next .def_1335))
(define-fun .def_1332 () Bool (= call_mesi.ite9.next call_mesi.ite16.next))
(define-fun .def_1333 () Bool (or .def_1329 .def_1332))
(define-fun .def_1328 () Bool (= call_mesi.ite.next call_mesi.ite8.next))
(define-fun .def_1330 () Bool (or .def_1328 .def_1329))
(define-fun .def_1325 () Bool (= call_mesi.ite8.next call_mesi.ite7.next))
(define-fun .def_1327 () Bool (or .def_1325 param_etat_me1.next))
(define-fun .def_1331 () Bool (and .def_1327 .def_1330))
(define-fun .def_1334 () Bool (and .def_1331 .def_1333))
(define-fun .def_1337 () Bool (and .def_1334 .def_1336))
(define-fun .def_1340 () Bool (and .def_1337 .def_1339))
(define-fun .def_1343 () Bool (and .def_1340 .def_1342))
(define-fun .def_1346 () Bool (and .def_1343 .def_1345))
(define-fun .def_1349 () Bool (and .def_1346 .def_1348))
(define-fun .def_1323 () Bool (= env.next call_Sofar.Sofar.next))
(define-fun .def_1319 () Bool (= invalid_me.next call_mesi.invalid_me.next))
(define-fun .def_1314 () Int (+ invalid_me.next call_Abs4.ite.next))
(define-fun .def_1315 () Bool (= .def_1314 0))
(define-fun .def_1311 () Bool (<= 0 invalid_me.next))
(define-fun .def_1316 () Bool (or .def_1311 .def_1315))
(define-fun .def_1312 () Bool (not .def_1311))
(define-fun .def_1310 () Bool (= invalid_me.next call_Abs4.ite.next))
(define-fun .def_1313 () Bool (or .def_1310 .def_1312))
(define-fun .def_1317 () Bool (and .def_1313 .def_1316))
(define-fun .def_1320 () Bool (and .def_1317 .def_1319))
(define-fun .def_1305 () Bool (= shared_me.next call_mesi.shared_me.next))
(define-fun .def_1300 () Int (+ shared_me.next call_Abs3.ite.next))
(define-fun .def_1301 () Bool (= .def_1300 0))
(define-fun .def_1297 () Bool (<= 0 shared_me.next))
(define-fun .def_1302 () Bool (or .def_1297 .def_1301))
(define-fun .def_1298 () Bool (not .def_1297))
(define-fun .def_1296 () Bool (= shared_me.next call_Abs3.ite.next))
(define-fun .def_1299 () Bool (or .def_1296 .def_1298))
(define-fun .def_1303 () Bool (and .def_1299 .def_1302))
(define-fun .def_1306 () Bool (and .def_1303 .def_1305))
(define-fun .def_1291 () Bool (= exclusive_me.next call_mesi.exclusive_me.next))
(define-fun .def_1286 () Int (+ exclusive_me.next call_Abs2.ite.next))
(define-fun .def_1287 () Bool (= .def_1286 0))
(define-fun .def_1283 () Bool (<= 0 exclusive_me.next))
(define-fun .def_1288 () Bool (or .def_1283 .def_1287))
(define-fun .def_1284 () Bool (not .def_1283))
(define-fun .def_1282 () Bool (= exclusive_me.next call_Abs2.ite.next))
(define-fun .def_1285 () Bool (or .def_1282 .def_1284))
(define-fun .def_1289 () Bool (and .def_1285 .def_1288))
(define-fun .def_1292 () Bool (and .def_1289 .def_1291))
(define-fun .def_1277 () Bool (= modified_me.next call_mesi.modified_me.next))
(define-fun .def_1272 () Int (+ modified_me.next call_Abs.ite.next))
(define-fun .def_1273 () Bool (= .def_1272 0))
(define-fun .def_1269 () Bool (<= 0 modified_me.next))
(define-fun .def_1274 () Bool (or .def_1269 .def_1273))
(define-fun .def_1270 () Bool (not .def_1269))
(define-fun .def_1268 () Bool (= modified_me.next call_Abs.ite.next))
(define-fun .def_1271 () Bool (or .def_1268 .def_1270))
(define-fun .def_1275 () Bool (and .def_1271 .def_1274))
(define-fun .def_1278 () Bool (and .def_1275 .def_1277))
(define-fun .def_1259 () Int (+ call_Abs3.Abs.next call_Abs4.Abs.next))
(define-fun .def_1260 () Int (+ call_Abs2.Abs.next .def_1259))
(define-fun .def_1261 () Int (+ call_Abs.Abs.next .def_1260))
(define-fun .def_1262 () Bool (<= .def_1261 3))
(define-fun .def_1251 () Bool (not env.next))
(define-fun .def_1263 () Bool (or .def_1251 .def_1262))
(define-fun .def_1264 () Bool (= _OK_.next .def_1263))
(define-fun .def_1245 () Bool (= call_mesi.ite30.next call_mesi.ite31.next))
(define-fun .def_1246 () Bool (or param_etat_me2.next .def_1245))
(define-fun .def_1242 () Bool (= call_mesi.ite26.next call_mesi.ite31.next))
(define-fun .def_1224 () Bool (not param_etat_me2.next))
(define-fun .def_1243 () Bool (or .def_1224 .def_1242))
(define-fun .def_1238 () Bool (= call_mesi.ite22.next call_mesi.ite23.next))
(define-fun .def_1239 () Bool (or param_etat_me2.next .def_1238))
(define-fun .def_1235 () Bool (= call_mesi.ite18.next call_mesi.ite23.next))
(define-fun .def_1236 () Bool (or .def_1224 .def_1235))
(define-fun .def_1231 () Bool (= call_mesi.ite14.next call_mesi.ite15.next))
(define-fun .def_1232 () Bool (or param_etat_me2.next .def_1231))
(define-fun .def_1228 () Bool (= call_mesi.ite10.next call_mesi.ite15.next))
(define-fun .def_1229 () Bool (or .def_1224 .def_1228))
(define-fun .def_1223 () Bool (= call_mesi.ite2.next call_mesi.ite7.next))
(define-fun .def_1225 () Bool (or .def_1223 .def_1224))
(define-fun .def_1220 () Bool (= call_mesi.ite6.next call_mesi.ite7.next))
(define-fun .def_1222 () Bool (or .def_1220 param_etat_me2.next))
(define-fun .def_1226 () Bool (and .def_1222 .def_1225))
(define-fun .def_1230 () Bool (and .def_1226 .def_1229))
(define-fun .def_1233 () Bool (and .def_1230 .def_1232))
(define-fun .def_1237 () Bool (and .def_1233 .def_1236))
(define-fun .def_1240 () Bool (and .def_1237 .def_1239))
(define-fun .def_1244 () Bool (and .def_1240 .def_1243))
(define-fun .def_1247 () Bool (and .def_1244 .def_1246))
(define-fun .def_1216 () Bool (= call_mesi.ite29.next call_mesi.ite30.next))
(define-fun .def_1217 () Bool (or param_etat_me3.next .def_1216))
(define-fun .def_1213 () Bool (= call_mesi.ite27.next call_mesi.ite30.next))
(define-fun .def_1195 () Bool (not param_etat_me3.next))
(define-fun .def_1214 () Bool (or .def_1195 .def_1213))
(define-fun .def_1209 () Bool (= call_mesi.ite21.next call_mesi.ite22.next))
(define-fun .def_1210 () Bool (or param_etat_me3.next .def_1209))
(define-fun .def_1206 () Bool (= call_mesi.ite19.next call_mesi.ite22.next))
(define-fun .def_1207 () Bool (or .def_1195 .def_1206))
(define-fun .def_1202 () Bool (= call_mesi.ite13.next call_mesi.ite14.next))
(define-fun .def_1203 () Bool (or param_etat_me3.next .def_1202))
(define-fun .def_1199 () Bool (= call_mesi.ite11.next call_mesi.ite14.next))
(define-fun .def_1200 () Bool (or .def_1195 .def_1199))
(define-fun .def_1194 () Bool (= call_mesi.ite3.next call_mesi.ite6.next))
(define-fun .def_1196 () Bool (or .def_1194 .def_1195))
(define-fun .def_1191 () Bool (= call_mesi.ite5.next call_mesi.ite6.next))
(define-fun .def_1193 () Bool (or .def_1191 param_etat_me3.next))
(define-fun .def_1197 () Bool (and .def_1193 .def_1196))
(define-fun .def_1201 () Bool (and .def_1197 .def_1200))
(define-fun .def_1204 () Bool (and .def_1201 .def_1203))
(define-fun .def_1208 () Bool (and .def_1204 .def_1207))
(define-fun .def_1211 () Bool (and .def_1208 .def_1210))
(define-fun .def_1215 () Bool (and .def_1211 .def_1214))
(define-fun .def_1218 () Bool (and .def_1215 .def_1217))
(define-fun .def_1248 () Bool (and .def_1218 .def_1247))
(define-fun .def_1265 () Bool (and .def_1248 .def_1264))
(define-fun .def_1279 () Bool (and .def_1265 .def_1278))
(define-fun .def_1293 () Bool (and .def_1279 .def_1292))
(define-fun .def_1307 () Bool (and .def_1293 .def_1306))
(define-fun .def_1321 () Bool (and .def_1307 .def_1320))
(define-fun .def_1324 () Bool (and .def_1321 .def_1323))
(define-fun .def_1350 () Bool (and .def_1324 .def_1349))
(define-fun .def_1352 () Bool (and .def_1350 .def_1351))
(define-fun .def_1354 () Bool (and .def_1352 .def_1353))
(define-fun .def_1356 () Bool (and .def_1354 .def_1355))
(define-fun .def_1358 () Bool (and .def_1356 .def_1357))
(define-fun .def_1372 () Bool (and .def_1358 .def_1371))
(define-fun .def_1374 () Bool (and .def_1372 .def_1373))
(define-fun .def_1376 () Bool (and .def_1374 .def_1375))
(define-fun .def_1378 () Bool (and .def_1376 .def_1377))
(define-fun .def_1380 () Bool (and .def_1378 .def_1379))
(define-fun .def_1382 () Bool (and .def_1380 .def_1381))
(define-fun .def_918 () Bool (= call_Abs4.Abs call_Abs4.ite))
(define-fun .def_916 () Bool (= call_Abs3.Abs call_Abs3.ite))
(define-fun .def_914 () Bool (= call_Abs2.Abs call_Abs2.ite))
(define-fun .def_912 () Bool (= call_Abs.Abs call_Abs.ite))
(define-fun .def_910 () Bool (= call_Sofar.Sofar call_Sofar.flby))
(define-fun .def_903 () Bool (and param_etat_me3 param_etat_me4))
(define-fun .def_901 () Bool (and param_etat_me2 param_etat_me4))
(define-fun .def_899 () Bool (and param_etat_me3 param_etat_me2))
(define-fun .def_896 () Bool (and param_etat_me2 param_etat_me1))
(define-fun .def_895 () Bool (and param_etat_me3 param_etat_me1))
(define-fun .def_897 () Bool (or .def_895 .def_896))
(define-fun .def_894 () Bool (and param_etat_me1 param_etat_me4))
(define-fun .def_898 () Bool (or .def_894 .def_897))
(define-fun .def_900 () Bool (or .def_898 .def_899))
(define-fun .def_902 () Bool (or .def_900 .def_901))
(define-fun .def_904 () Bool (or .def_902 .def_903))
(define-fun .def_905 () Bool (not .def_904))
(define-fun .def_907 () Bool (= .def_905 call_excludes4.excludes))
(define-fun .def_891 () Bool (= call_mesi.invalid_me call_mesi.flby4))
(define-fun .def_888 () Bool (= call_mesi.shared_me call_mesi.flby3))
(define-fun .def_885 () Bool (= call_mesi.exclusive_me call_mesi.flby2))
(define-fun .def_882 () Bool (= call_mesi.modified_me call_mesi.flby))
(define-fun .def_877 () Bool (= call_mesi.ite31 call_mesi.ite32))
(define-fun .def_878 () Bool (or param_etat_me1 .def_877))
(define-fun .def_874 () Bool (= call_mesi.ite25 call_mesi.ite32))
(define-fun .def_853 () Bool (not param_etat_me1))
(define-fun .def_875 () Bool (or .def_853 .def_874))
(define-fun .def_869 () Bool (= call_mesi.ite23 call_mesi.ite24))
(define-fun .def_870 () Bool (or param_etat_me1 .def_869))
(define-fun .def_866 () Bool (= call_mesi.ite17 call_mesi.ite24))
(define-fun .def_867 () Bool (or .def_853 .def_866))
(define-fun .def_861 () Bool (= call_mesi.ite15 call_mesi.ite16))
(define-fun .def_862 () Bool (or param_etat_me1 .def_861))
(define-fun .def_858 () Bool (= call_mesi.ite16 call_mesi.ite9))
(define-fun .def_859 () Bool (or .def_853 .def_858))
(define-fun .def_852 () Bool (= call_mesi.ite8 call_mesi.ite))
(define-fun .def_854 () Bool (or .def_852 .def_853))
(define-fun .def_848 () Bool (= call_mesi.ite7 call_mesi.ite8))
(define-fun .def_850 () Bool (or .def_848 param_etat_me1))
(define-fun .def_855 () Bool (and .def_850 .def_854))
(define-fun .def_860 () Bool (and .def_855 .def_859))
(define-fun .def_863 () Bool (and .def_860 .def_862))
(define-fun .def_868 () Bool (and .def_863 .def_867))
(define-fun .def_871 () Bool (and .def_868 .def_870))
(define-fun .def_876 () Bool (and .def_871 .def_875))
(define-fun .def_879 () Bool (and .def_876 .def_878))
(define-fun .def_845 () Bool (= env call_Sofar.Sofar))
(define-fun .def_841 () Bool (= invalid_me call_mesi.invalid_me))
(define-fun .def_836 () Int (+ invalid_me call_Abs4.ite))
(define-fun .def_837 () Bool (= .def_836 0))
(define-fun .def_833 () Bool (<= 0 invalid_me))
(define-fun .def_838 () Bool (or .def_833 .def_837))
(define-fun .def_834 () Bool (not .def_833))
(define-fun .def_832 () Bool (= invalid_me call_Abs4.ite))
(define-fun .def_835 () Bool (or .def_832 .def_834))
(define-fun .def_839 () Bool (and .def_835 .def_838))
(define-fun .def_842 () Bool (and .def_839 .def_841))
(define-fun .def_827 () Bool (= shared_me call_mesi.shared_me))
(define-fun .def_822 () Int (+ shared_me call_Abs3.ite))
(define-fun .def_823 () Bool (= .def_822 0))
(define-fun .def_819 () Bool (<= 0 shared_me))
(define-fun .def_824 () Bool (or .def_819 .def_823))
(define-fun .def_820 () Bool (not .def_819))
(define-fun .def_818 () Bool (= shared_me call_Abs3.ite))
(define-fun .def_821 () Bool (or .def_818 .def_820))
(define-fun .def_825 () Bool (and .def_821 .def_824))
(define-fun .def_828 () Bool (and .def_825 .def_827))
(define-fun .def_813 () Bool (= exclusive_me call_mesi.exclusive_me))
(define-fun .def_808 () Int (+ exclusive_me call_Abs2.ite))
(define-fun .def_809 () Bool (= .def_808 0))
(define-fun .def_805 () Bool (<= 0 exclusive_me))
(define-fun .def_810 () Bool (or .def_805 .def_809))
(define-fun .def_806 () Bool (not .def_805))
(define-fun .def_804 () Bool (= exclusive_me call_Abs2.ite))
(define-fun .def_807 () Bool (or .def_804 .def_806))
(define-fun .def_811 () Bool (and .def_807 .def_810))
(define-fun .def_814 () Bool (and .def_811 .def_813))
(define-fun .def_799 () Bool (= modified_me call_mesi.modified_me))
(define-fun .def_794 () Int (+ modified_me call_Abs.ite))
(define-fun .def_795 () Bool (= .def_794 0))
(define-fun .def_791 () Bool (<= 0 modified_me))
(define-fun .def_796 () Bool (or .def_791 .def_795))
(define-fun .def_792 () Bool (not .def_791))
(define-fun .def_790 () Bool (= modified_me call_Abs.ite))
(define-fun .def_793 () Bool (or .def_790 .def_792))
(define-fun .def_797 () Bool (and .def_793 .def_796))
(define-fun .def_800 () Bool (and .def_797 .def_799))
(define-fun .def_781 () Int (+ call_Abs3.Abs call_Abs4.Abs))
(define-fun .def_782 () Int (+ call_Abs2.Abs .def_781))
(define-fun .def_783 () Int (+ call_Abs.Abs .def_782))
(define-fun .def_784 () Bool (<= .def_783 3))
(define-fun .def_773 () Bool (not env))
(define-fun .def_785 () Bool (or .def_773 .def_784))
(define-fun .def_786 () Bool (= _OK_ .def_785))
(define-fun .def_767 () Bool (= call_mesi.ite30 call_mesi.ite31))
(define-fun .def_768 () Bool (or param_etat_me2 .def_767))
(define-fun .def_764 () Bool (= call_mesi.ite26 call_mesi.ite31))
(define-fun .def_743 () Bool (not param_etat_me2))
(define-fun .def_765 () Bool (or .def_743 .def_764))
(define-fun .def_759 () Bool (= call_mesi.ite22 call_mesi.ite23))
(define-fun .def_760 () Bool (or param_etat_me2 .def_759))
(define-fun .def_756 () Bool (= call_mesi.ite18 call_mesi.ite23))
(define-fun .def_757 () Bool (or .def_743 .def_756))
(define-fun .def_751 () Bool (= call_mesi.ite14 call_mesi.ite15))
(define-fun .def_752 () Bool (or param_etat_me2 .def_751))
(define-fun .def_748 () Bool (= call_mesi.ite10 call_mesi.ite15))
(define-fun .def_749 () Bool (or .def_743 .def_748))
(define-fun .def_742 () Bool (= call_mesi.ite7 call_mesi.ite2))
(define-fun .def_744 () Bool (or .def_742 .def_743))
(define-fun .def_738 () Bool (= call_mesi.ite6 call_mesi.ite7))
(define-fun .def_740 () Bool (or .def_738 param_etat_me2))
(define-fun .def_745 () Bool (and .def_740 .def_744))
(define-fun .def_750 () Bool (and .def_745 .def_749))
(define-fun .def_753 () Bool (and .def_750 .def_752))
(define-fun .def_758 () Bool (and .def_753 .def_757))
(define-fun .def_761 () Bool (and .def_758 .def_760))
(define-fun .def_766 () Bool (and .def_761 .def_765))
(define-fun .def_769 () Bool (and .def_766 .def_768))
(define-fun .def_734 () Bool (= call_mesi.ite30 call_mesi.ite29))
(define-fun .def_735 () Bool (or param_etat_me3 .def_734))
(define-fun .def_730 () Bool (= call_mesi.ite27 call_mesi.ite30))
(define-fun .def_707 () Bool (not param_etat_me3))
(define-fun .def_731 () Bool (or .def_707 .def_730))
(define-fun .def_725 () Bool (= call_mesi.ite22 call_mesi.ite21))
(define-fun .def_726 () Bool (or param_etat_me3 .def_725))
(define-fun .def_721 () Bool (= call_mesi.ite22 call_mesi.ite19))
(define-fun .def_722 () Bool (or .def_707 .def_721))
(define-fun .def_716 () Bool (= call_mesi.ite14 call_mesi.ite13))
(define-fun .def_717 () Bool (or param_etat_me3 .def_716))
(define-fun .def_712 () Bool (= call_mesi.ite14 call_mesi.ite11))
(define-fun .def_713 () Bool (or .def_707 .def_712))
(define-fun .def_706 () Bool (= call_mesi.ite6 call_mesi.ite3))
(define-fun .def_708 () Bool (or .def_706 .def_707))
(define-fun .def_702 () Bool (= call_mesi.ite6 call_mesi.ite5))
(define-fun .def_704 () Bool (or .def_702 param_etat_me3))
(define-fun .def_709 () Bool (and .def_704 .def_708))
(define-fun .def_714 () Bool (and .def_709 .def_713))
(define-fun .def_718 () Bool (and .def_714 .def_717))
(define-fun .def_723 () Bool (and .def_718 .def_722))
(define-fun .def_727 () Bool (and .def_723 .def_726))
(define-fun .def_732 () Bool (and .def_727 .def_731))
(define-fun .def_736 () Bool (and .def_732 .def_735))
(define-fun .def_770 () Bool (and .def_736 .def_769))
(define-fun .def_787 () Bool (and .def_770 .def_786))
(define-fun .def_801 () Bool (and .def_787 .def_800))
(define-fun .def_815 () Bool (and .def_801 .def_814))
(define-fun .def_829 () Bool (and .def_815 .def_828))
(define-fun .def_843 () Bool (and .def_829 .def_842))
(define-fun .def_846 () Bool (and .def_843 .def_845))
(define-fun .def_880 () Bool (and .def_846 .def_879))
(define-fun .def_883 () Bool (and .def_880 .def_882))
(define-fun .def_886 () Bool (and .def_883 .def_885))
(define-fun .def_889 () Bool (and .def_886 .def_888))
(define-fun .def_892 () Bool (and .def_889 .def_891))
(define-fun .def_908 () Bool (and .def_892 .def_907))
(define-fun .def_911 () Bool (and .def_908 .def_910))
(define-fun .def_913 () Bool (and .def_911 .def_912))
(define-fun .def_915 () Bool (and .def_913 .def_914))
(define-fun .def_917 () Bool (and .def_915 .def_916))
(define-fun .def_919 () Bool (and .def_917 .def_918))
(define-fun .def_1383 () Bool (and .def_919 .def_1382))
(define-fun .def_1186 () Bool (and call_Sofar.Sofar call_excludes4.excludes.next))
(define-fun .def_1188 () Bool (= .def_1186 call_Sofar.flby.next))
(define-fun .def_1183 () Bool (= call_mesi.ite32.next call_mesi.flby4.next))
(define-fun .def_1179 () Bool (= call_mesi.ite24.next call_mesi.flby3.next))
(define-fun .def_1175 () Bool (= call_mesi.ite16.next call_mesi.flby2.next))
(define-fun .def_1171 () Bool (= call_mesi.ite8.next call_mesi.flby.next))
(define-fun .def_1139 () Bool (<= 1 call_mesi.invalid_me))
(define-fun .def_1166 () Bool (= call_mesi.garde_me4.next .def_1139))
(define-fun .def_1163 () Bool (= call_mesi.ite20.next 0))
(define-fun .def_1042 () Bool (not call_mesi.garde_me4.next))
(define-fun .def_1164 () Bool (or .def_1042 .def_1163))
(define-fun .def_1160 () Bool (= call_mesi.ite4.next 0))
(define-fun .def_1161 () Bool (or .def_1042 .def_1160))
(define-fun .def_1158 () Bool (= call_mesi.ite12.next 1))
(define-fun .def_1159 () Bool (or .def_1042 .def_1158))
(define-fun .def_1162 () Bool (and .def_1159 .def_1161))
(define-fun .def_1165 () Bool (and .def_1162 .def_1164))
(define-fun .def_1167 () Bool (and .def_1165 .def_1166))
(define-fun .def_1154 () Bool (<= 1 call_mesi.shared_me))
(define-fun .def_1155 () Bool (= call_mesi.garde_me3.next .def_1154))
(define-fun .def_1151 () Bool (= call_mesi.ite19.next 0))
(define-fun .def_1028 () Bool (not call_mesi.garde_me3.next))
(define-fun .def_1152 () Bool (or .def_1028 .def_1151))
(define-fun .def_1148 () Bool (= call_mesi.ite3.next 0))
(define-fun .def_1149 () Bool (or .def_1028 .def_1148))
(define-fun .def_1146 () Bool (= call_mesi.ite11.next 1))
(define-fun .def_1147 () Bool (or .def_1028 .def_1146))
(define-fun .def_1150 () Bool (and .def_1147 .def_1149))
(define-fun .def_1153 () Bool (and .def_1150 .def_1152))
(define-fun .def_1156 () Bool (and .def_1153 .def_1155))
(define-fun .def_1143 () Bool (<= 1 call_mesi.exclusive_me))
(define-fun .def_1144 () Bool (= call_mesi.garde_me2.next .def_1143))
(define-fun .def_1140 () Bool (= call_mesi.garde_me1.next .def_1139))
(define-fun .def_1136 () Bool (= call_mesi.ite.next 0))
(define-fun .def_1014 () Bool (not call_mesi.garde_me1.next))
(define-fun .def_1137 () Bool (or .def_1014 .def_1136))
(define-fun .def_1134 () Bool (= call_mesi.ite9.next 0))
(define-fun .def_1135 () Bool (or .def_1014 .def_1134))
(define-fun .def_1138 () Bool (and .def_1135 .def_1137))
(define-fun .def_1141 () Bool (and .def_1138 .def_1140))
(define-fun .def_1130 () Bool (= call_mesi.invalid_me call_mesi.ite28.next))
(define-fun .def_1131 () Bool (or call_mesi.garde_me4.next .def_1130))
(define-fun .def_1127 () Bool (= call_mesi.invalid_me call_mesi.ite27.next))
(define-fun .def_1128 () Bool (or call_mesi.garde_me3.next .def_1127))
(define-fun .def_1122 () Bool (= call_mesi.invalid_me call_mesi.ite26.next))
(define-fun .def_1125 () Bool (or call_mesi.garde_me2.next .def_1122))
(define-fun .def_982 () Bool (not call_mesi.garde_me2.next))
(define-fun .def_1123 () Bool (or .def_982 .def_1122))
(define-fun .def_1116 () Int (* (- 1) call_mesi.ite25.next))
(define-fun .def_1117 () Int (+ call_mesi.invalid_me .def_1116))
(define-fun .def_1118 () Bool (= .def_1117 1))
(define-fun .def_1119 () Bool (or .def_1014 .def_1118))
(define-fun .def_1114 () Bool (= call_mesi.invalid_me call_mesi.ite25.next))
(define-fun .def_1115 () Bool (or call_mesi.garde_me1.next .def_1114))
(define-fun .def_1120 () Bool (and .def_1115 .def_1119))
(define-fun .def_1124 () Bool (and .def_1120 .def_1123))
(define-fun .def_1126 () Bool (and .def_1124 .def_1125))
(define-fun .def_1129 () Bool (and .def_1126 .def_1128))
(define-fun .def_1132 () Bool (and .def_1129 .def_1131))
(define-fun .def_1109 () Bool (= call_mesi.shared_me call_mesi.ite20.next))
(define-fun .def_1110 () Bool (or call_mesi.garde_me4.next .def_1109))
(define-fun .def_1106 () Bool (= call_mesi.shared_me call_mesi.ite19.next))
(define-fun .def_1107 () Bool (or call_mesi.garde_me3.next .def_1106))
(define-fun .def_1098 () Bool (= call_mesi.shared_me call_mesi.ite18.next))
(define-fun .def_1103 () Bool (or call_mesi.garde_me2.next .def_1098))
(define-fun .def_1100 () Bool (= call_mesi.shared_me call_mesi.ite17.next))
(define-fun .def_1101 () Bool (or call_mesi.garde_me1.next .def_1100))
(define-fun .def_1099 () Bool (or .def_982 .def_1098))
(define-fun .def_1102 () Bool (and .def_1099 .def_1101))
(define-fun .def_1104 () Bool (and .def_1102 .def_1103))
(define-fun .def_1108 () Bool (and .def_1104 .def_1107))
(define-fun .def_1111 () Bool (and .def_1108 .def_1110))
(define-fun .def_1093 () Bool (= call_mesi.exclusive_me call_mesi.ite12.next))
(define-fun .def_1094 () Bool (or call_mesi.garde_me4.next .def_1093))
(define-fun .def_1090 () Bool (= call_mesi.exclusive_me call_mesi.ite11.next))
(define-fun .def_1091 () Bool (or call_mesi.garde_me3.next .def_1090))
(define-fun .def_1086 () Bool (= call_mesi.exclusive_me call_mesi.ite10.next))
(define-fun .def_1087 () Bool (or call_mesi.garde_me2.next .def_1086))
(define-fun .def_1083 () Bool (= call_mesi.exclusive_me call_mesi.ite9.next))
(define-fun .def_1084 () Bool (or call_mesi.garde_me1.next .def_1083))
(define-fun .def_1078 () Int (* (- 1) call_mesi.ite10.next))
(define-fun .def_1079 () Int (+ call_mesi.exclusive_me .def_1078))
(define-fun .def_1080 () Bool (= .def_1079 1))
(define-fun .def_1081 () Bool (or .def_982 .def_1080))
(define-fun .def_1085 () Bool (and .def_1081 .def_1084))
(define-fun .def_1088 () Bool (and .def_1085 .def_1087))
(define-fun .def_1092 () Bool (and .def_1088 .def_1091))
(define-fun .def_1095 () Bool (and .def_1092 .def_1094))
(define-fun .def_1073 () Bool (= call_mesi.invalid_me call_mesi.ite29.next))
(define-fun .def_1074 () Bool (or param_etat_me4.next .def_1073))
(define-fun .def_1070 () Bool (= call_mesi.ite28.next call_mesi.ite29.next))
(define-fun .def_1050 () Bool (not param_etat_me4.next))
(define-fun .def_1071 () Bool (or .def_1050 .def_1070))
(define-fun .def_1066 () Bool (= call_mesi.shared_me call_mesi.ite21.next))
(define-fun .def_1067 () Bool (or param_etat_me4.next .def_1066))
(define-fun .def_1063 () Bool (= call_mesi.ite20.next call_mesi.ite21.next))
(define-fun .def_1064 () Bool (or .def_1050 .def_1063))
(define-fun .def_1058 () Bool (= call_mesi.exclusive_me call_mesi.ite13.next))
(define-fun .def_1059 () Bool (or param_etat_me4.next .def_1058))
(define-fun .def_1055 () Bool (= call_mesi.ite12.next call_mesi.ite13.next))
(define-fun .def_1056 () Bool (or .def_1050 .def_1055))
(define-fun .def_1049 () Bool (= call_mesi.ite4.next call_mesi.ite5.next))
(define-fun .def_1051 () Bool (or .def_1049 .def_1050))
(define-fun .def_1046 () Bool (= call_mesi.modified_me call_mesi.ite5.next))
(define-fun .def_1048 () Bool (or .def_1046 param_etat_me4.next))
(define-fun .def_1052 () Bool (and .def_1048 .def_1051))
(define-fun .def_1057 () Bool (and .def_1052 .def_1056))
(define-fun .def_1060 () Bool (and .def_1057 .def_1059))
(define-fun .def_1065 () Bool (and .def_1060 .def_1064))
(define-fun .def_1068 () Bool (and .def_1065 .def_1067))
(define-fun .def_1072 () Bool (and .def_1068 .def_1071))
(define-fun .def_1075 () Bool (and .def_1072 .def_1074))
(define-fun .def_1032 () Int (* (- 1) call_mesi.ite28.next))
(define-fun .def_1037 () Int (+ call_mesi.invalid_me .def_1032))
(define-fun .def_1038 () Int (+ call_mesi.shared_me .def_1037))
(define-fun .def_1039 () Int (+ call_mesi.exclusive_me .def_1038))
(define-fun .def_1040 () Int (+ call_mesi.modified_me .def_1039))
(define-fun .def_1041 () Bool (= .def_1040 1))
(define-fun .def_1043 () Bool (or .def_1041 .def_1042))
(define-fun .def_1018 () Int (* (- 1) call_mesi.ite27.next))
(define-fun .def_1023 () Int (+ call_mesi.invalid_me .def_1018))
(define-fun .def_1024 () Int (+ call_mesi.shared_me .def_1023))
(define-fun .def_1025 () Int (+ call_mesi.exclusive_me .def_1024))
(define-fun .def_1026 () Int (+ call_mesi.modified_me .def_1025))
(define-fun .def_1027 () Bool (= .def_1026 1))
(define-fun .def_1029 () Bool (or .def_1027 .def_1028))
(define-fun .def_1008 () Int (* (- 1) call_mesi.shared_me))
(define-fun .def_1009 () Int (+ .def_1008 call_mesi.ite17.next))
(define-fun .def_1010 () Int (* (- 1) call_mesi.exclusive_me))
(define-fun .def_1011 () Int (+ .def_1010 .def_1009))
(define-fun .def_1012 () Int (+ call_mesi.modified_me .def_1011))
(define-fun .def_1013 () Bool (= .def_1012 (- 2)))
(define-fun .def_1015 () Bool (or .def_1013 .def_1014))
(define-fun .def_998 () Bool (= call_mesi.modified_me call_mesi.ite4.next))
(define-fun .def_1000 () Bool (or .def_998 call_mesi.garde_me4.next))
(define-fun .def_993 () Bool (= call_mesi.modified_me call_mesi.ite3.next))
(define-fun .def_995 () Bool (or .def_993 call_mesi.garde_me3.next))
(define-fun .def_989 () Bool (= call_mesi.modified_me call_mesi.ite2.next))
(define-fun .def_990 () Bool (or call_mesi.garde_me2.next .def_989))
(define-fun .def_985 () Bool (= call_mesi.modified_me call_mesi.ite.next))
(define-fun .def_987 () Bool (or .def_985 call_mesi.garde_me1.next))
(define-fun .def_978 () Int (* (- 1) call_mesi.ite2.next))
(define-fun .def_979 () Int (+ call_mesi.modified_me .def_978))
(define-fun .def_980 () Bool (= .def_979 1))
(define-fun .def_983 () Bool (or .def_980 .def_982))
(define-fun .def_988 () Bool (and .def_983 .def_987))
(define-fun .def_991 () Bool (and .def_988 .def_990))
(define-fun .def_996 () Bool (and .def_991 .def_995))
(define-fun .def_1001 () Bool (and .def_996 .def_1000))
(define-fun .def_1016 () Bool (and .def_1001 .def_1015))
(define-fun .def_1030 () Bool (and .def_1016 .def_1029))
(define-fun .def_1044 () Bool (and .def_1030 .def_1043))
(define-fun .def_1076 () Bool (and .def_1044 .def_1075))
(define-fun .def_1096 () Bool (and .def_1076 .def_1095))
(define-fun .def_1112 () Bool (and .def_1096 .def_1111))
(define-fun .def_1133 () Bool (and .def_1112 .def_1132))
(define-fun .def_1142 () Bool (and .def_1133 .def_1141))
(define-fun .def_1145 () Bool (and .def_1142 .def_1144))
(define-fun .def_1157 () Bool (and .def_1145 .def_1156))
(define-fun .def_1168 () Bool (and .def_1157 .def_1167))
(define-fun .def_1172 () Bool (and .def_1168 .def_1171))
(define-fun .def_1176 () Bool (and .def_1172 .def_1175))
(define-fun .def_1180 () Bool (and .def_1176 .def_1179))
(define-fun .def_1184 () Bool (and .def_1180 .def_1183))
(define-fun .def_1189 () Bool (and .def_1184 .def_1188))
(define-fun .def_1384 () Bool (and .def_1189 .def_1383))
(assert .def_1384)
